p cnf 51 180
3 1 0
3 -2 0
-1 2 -3 0
4 -5 0
-4 -5 0
6 -3 0
6 -5 0
3 5 -6 0
-8 -6 0
-8 -7 0
6 7 8 0
9 10 -11 0
-9 -10 -11 0
9 -10 11 0
-9 10 11 0
12 1 -13 0
-12 -1 -13 0
12 -1 13 0
-12 1 13 0
-14 11 0
-14 -13 0
-11 13 14 0
-15 -8 0
-15 -14 0
8 14 15 0
16 -17 -18 0
-16 17 -18 0
16 17 18 0
-16 -17 18 0
19 -6 0
19 2 0
6 -2 -19 0
-18 19 -20 0
18 -19 -20 0
-18 -19 20 0
18 19 20 0
21 -15 0
21 20 0
15 -20 -21 0
-22 4 0
-22 -12 0
-4 12 22 0
24 22 0
24 23 0
-22 -23 -24 0
25 -12 0
25 7 0
12 -7 -25 0
-6 -17 -26 0
6 17 -26 0
-6 17 26 0
6 -17 26 0
27 4 0
27 26 0
-4 -26 -27 0
28 27 0
28 -4 0
-27 4 -28 0
-29 -13 0
-29 28 0
13 -28 29 0
25 29 -30 0
-25 -29 -30 0
25 -29 30 0
-25 29 30 0
24 -30 -31 0
-24 30 -31 0
24 30 31 0
-24 -30 31 0
11 5 -32 0
-11 -5 -32 0
11 -5 32 0
-11 5 32 0
-33 -32 0
-33 22 0
32 -22 33 0
-34 33 0
-34 -9 0
-33 9 34 0
34 10 -35 0
-34 -10 -35 0
34 -10 35 0
-34 10 35 0
-31 -35 -36 0
31 35 -36 0
-31 35 36 0
31 -35 36 0
-37 -12 0
-37 -32 0
12 32 37 0
38 -13 0
38 -37 0
13 37 -38 0
-12 -38 -39 0
12 38 -39 0
-12 38 39 0
12 -38 39 0
1 3 -40 0
-1 -3 -40 0
1 -3 40 0
-1 3 40 0
-41 10 0
-41 40 0
-10 -40 41 0
42 39 0
42 41 0
-39 -41 -42 0
4 -32 -43 0
-4 32 -43 0
4 32 43 0
-4 -32 43 0
-44 -42 0
-44 43 0
42 -43 44 0
36 -44 -45 0
-36 44 -45 0
36 44 45 0
-36 -44 45 0
-6 5 -46 0
6 -5 -46 0
-6 -5 46 0
6 5 46 0
47 -2 0
47 46 0
2 -46 -47 0
48 32 0
48 10 0
-32 -10 -48 0
-47 48 -49 0
47 -48 -49 0
-47 -48 49 0
47 48 49 0
-50 -45 0
-50 49 0
45 -49 50 0
51 -21 0
51 50 0
21 -50 -51 0
37 14 0
32 47 9 4 20 0
-42 31 35 0
12 40 -24 3 -20 0
51 1 -42 -36 35 50 0
-17 36 -1 0
-7 -15 29 43 0
-46 37 0
25 21 34 0
-17 9 0
-34 -36 -7 -15 0
34 31 25 -5 0
-36 16 48 -23 18 0
14 23 0
12 -32 30 -3 0
12 43 0
15 -33 0
-28 -9 43 0
27 13 28 41 37 0
37 11 0
-50 -13 18 0
-4 -45 -36 17 -7 0
51 45 -5 47 7 -43 0
-27 13 -12 50 35 0
-10 -31 45 -6 0
-31 -26 49 -12 -24 0
23 -46 0
5 -12 0
13 26 20 27 -49 0
-49 4 42 0
-30 -25 0
-10 6 0
32 28 38 1 36 -41 0
29 -5 -25 -41 0
-51 21 6 14 0
43 -30 0
-4 49 50 0
-21 -40 -33 -41 -30 51 0
33 -37 -49 9 0
-19 -1 0
-14 32 -20 11 3 0
51 0
